language ESSENCE' 1.0
letting lastdx=98
letting cage be [
[1,2,13,0,0, 0,0, 0,0, 0,0],
[33,16,9,15,9,15,8,16,8,0,0],
[19,16,13,16,12,16,11,0,0, 0,0],
[36,11,3,10,3,9,3,9,4,0,0],
[30,1,10,2,10,2,9,2,8,3,8],
[16,11,6,0,0, 0,0, 0,0, 0,0],
[25,1,15,1,16,2,16,0,0, 0,0],
[41,4,1,5,1,5,2,4,2,0,0],
[19,9,13,9,12,9,11,0,0, 0,0],
[47,8,13,8,12,7,12,6,12,5,12],
[23,3,6,4,6,5,6,5,7,0,0],
[1,8,3,0,0, 0,0, 0,0, 0,0],
[40,3,4,3,3,4,3,5,3,6,3],
[4,12,3,0,0, 0,0, 0,0, 0,0],
[10,14,2,0,0, 0,0, 0,0, 0,0],
[21,15,13,15,14,0,0, 0,0, 0,0],
[9,6,11,0,0, 0,0, 0,0, 0,0],
[22,15,7,16,7,0,0, 0,0, 0,0],
[36,11,7,11,8,11,9,12,9,12,8],
[3,8,2,0,0, 0,0, 0,0, 0,0],
[13,6,5,0,0, 0,0, 0,0, 0,0],
[10,12,14,0,0, 0,0, 0,0, 0,0],
[16,7,1,8,1,0,0, 0,0, 0,0],
[12,7,4,0,0, 0,0, 0,0, 0,0],
[34,14,8,13,8,13,9,14,9,0,0],
[10,7,13,0,0, 0,0, 0,0, 0,0],
[6,15,1,15,2,0,0, 0,0, 0,0],
[10,13,16,0,0, 0,0, 0,0, 0,0],
[16,12,1,0,0, 0,0, 0,0, 0,0],
[29,6,4,5,4,0,0, 0,0, 0,0],
[46,13,12,12,12,12,11,11,11,0,0],
[2,4,16,0,0, 0,0, 0,0, 0,0],
[28,1,14,2,14,2,15,0,0, 0,0],
[45,15,15,15,16,16,16,16,15,16,14],
[34,1,12,1,13,1,11,2,11,3,11],
[14,9,7,0,0, 0,0, 0,0, 0,0],
[6,10,6,0,0, 0,0, 0,0, 0,0],
[54,11,13,10,13,10,14,10,15,9,15],
[36,11,2,12,2,13,2,13,3,13,4],
[9,6,7,7,7,0,0, 0,0, 0,0],
[29,16,2,16,1,16,3,0,0, 0,0],
[3,4,11,0,0, 0,0, 0,0, 0,0],
[4,1,6,0,0, 0,0, 0,0, 0,0],
[2,2,4,0,0, 0,0, 0,0, 0,0],
[2,11,1,0,0, 0,0, 0,0, 0,0],
[18,9,8,9,9,0,0, 0,0, 0,0],
[18,15,12,14,12,0,0, 0,0, 0,0],
[26,8,7,8,6,0,0, 0,0, 0,0],
[17,13,15,14,15,14,16,0,0, 0,0],
[3,15,10,16,10,0,0, 0,0, 0,0],
[26,14,3,14,4,15,4,15,3,0,0],
[9,14,10,0,0, 0,0, 0,0, 0,0],
[13,15,11,0,0, 0,0, 0,0, 0,0],
[12,15,6,0,0, 0,0, 0,0, 0,0],
[24,8,16,9,16,0,0, 0,0, 0,0],
[51,3,15,3,16,3,14,4,14,5,14],
[22,7,11,7,10,0,0, 0,0, 0,0],
[6,14,11,0,0, 0,0, 0,0, 0,0],
[4,14,5,0,0, 0,0, 0,0, 0,0],
[46,10,4,11,4,12,4,12,5,11,5],
[27,13,11,13,10,0,0, 0,0, 0,0],
[26,11,15,11,14,0,0, 0,0, 0,0],
[39,2,3,2,2,1,2,0,0, 0,0],
[26,1,8,1,9,0,0, 0,0, 0,0],
[4,8,4,0,0, 0,0, 0,0, 0,0],
[48,8,10,8,11,8,9,7,9,8,8],
[2,13,14,0,0, 0,0, 0,0, 0,0],
[5,10,7,0,0, 0,0, 0,0, 0,0],
[9,1,1,0,0, 0,0, 0,0, 0,0],
[16,1,3,1,4,0,0, 0,0, 0,0],
[29,1,5,2,5,2,6,0,0, 0,0],
[10,1,7,0,0, 0,0, 0,0, 0,0],
[13,2,1,3,1,3,2,0,0, 0,0],
[15,2,7,0,0, 0,0, 0,0, 0,0],
[45,3,5,4,5,4,4,5,5,0,0],
[39,3,7,4,7,4,8,4,9,4,10],
[20,3,9,3,10,0,0, 0,0, 0,0],
[15,4,15,0,0, 0,0, 0,0, 0,0],
[21,5,10,5,11,6,10,0,0, 0,0],
[36,5,13,6,13,6,14,7,14,0,0],
[8,5,15,0,0, 0,0, 0,0, 0,0],
[1,5,16,0,0, 0,0, 0,0, 0,0],
[23,6,1,6,2,0,0, 0,0, 0,0],
[5,6,6,7,6,0,0, 0,0, 0,0],
[21,6,15,6,16,7,16,0,0, 0,0],
[14,7,2,7,3,0,0, 0,0, 0,0],
[9,7,5,0,0, 0,0, 0,0, 0,0],
[28,7,15,8,15,8,14,9,14,0,0],
[37,9,1,9,2,10,2,10,1,0,0],
[16,9,10,0,0, 0,0, 0,0, 0,0],
[4,10,8,0,0, 0,0, 0,0, 0,0],
[34,10,9,10,10,10,11,10,12,11,12],
[3,10,16,0,0, 0,0, 0,0, 0,0],
[21,11,10,12,10,0,0, 0,0, 0,0],
[17,11,16,12,16,12,15,0,0, 0,0],
[34,12,13,13,13,14,13,14,14,0,0],
[26,13,1,14,1,0,0, 0,0, 0,0],
[17,14,6,14,7,0,0, 0,0, 0,0],
[45,15,5,16,5,16,4,16,6,0,0]
]
